NAME: concorde5
TYPE: TSP
COMMENT: Generated by CCutil_writetsplib
COMMENT: Write called for by Concorde GUI
DIMENSION: 5
EDGE_WEIGHT_TYPE: EUC_2D
NODE_COORD_SECTION
1 31.045752 75.527426
2 42.565359 77.004219
3 64.705882 76.160338
4 50.735294 33.333333
5 53.104575 90.717300
